(declare-fun e () String)
(declare-fun c () String)
(declare-fun g () String)
(declare-fun b () String)
(declare-fun a () String)
(declare-fun h () String)
(assert (= (str.++ c g) a))
(assert (= "cc" (str.++ "c" e)))
(assert (= (str.++ "e" b "e" g b h) (str.++ c "e" e "eh" h)))

(check-sat)
